47
32 59 
67 67 
66 67 
29 96 
97 25 
57 74 
66 22 
90 64 
94 37 
50 65 
80 29 
42 37 
26 29 
47 31 
62 46 
51 24 
75 91 
45 41 
36 81 
79 37 
83 76 
85 92 
64 98 
42 91 
70 38 
28 46 
67 21 
97 79 
50 27 
53 38 
90 64 
41 35 
69 80 32 
51 29 24 
100 73 84 
60 53 28 
21 80 45 
20 68 100 
37 62 31 48 
75 64 76 33 
84 44 40 35 
48 84 59 69 
23 90 68 38 
46 79 34 61 32 
81 48 30 64 80 
61 88 66 36 26 34 
92 23 
